StudentsNr = 20;
InstructorsNr = 15;
DaysNr = 2;
SlotsPerDay = 10;
AvailabilitySlotsLenght = 2;
RoomNr = 2;
ProgrammNr = 2;
DegreeNr = 1;
RolesNr = 2;
CoursesNr = 4;
InstructorsProgramm = [{1}, {1}, {1, 2}, {2}, {1}, {1, 2}, {1, 2}, {2}, {2}, {2}, {1, 2}, {1}, {1}, {1, 2}, {1}];
InstructorRolesPerProgramm = [|{1, 3, 5, 7, 11, 12, 15}, {1, 3, 7, 12}|{3, 4, 7, 8, 11}, {3, 7}|];
InstructorsAvailability = [|0, 1, 1, 1, 1, 1, 1, 1, 1, 1, |0, 1, 1, 0, 0, 0, 1, 1, 1, 1, |0, 1, 1, 1, 1, 1, 1, 1, 1, 0, |0, 1, 1, 1, 0, 1, 1, 1, 1, 0, |1, 1, 0, 0, 0, 1, 1, 1, 1, 1, |0, 1, 1, 1, 1, 1, 1, 1, 1, 1, |0, 0, 0, 1, 1, 1, 1, 1, 1, 0, |0, 1, 1, 1, 1, 1, 1, 1, 1, 1, |1, 1, 1, 1, 1, 1, 0, 1, 1, 1, |1, 0, 1, 1, 1, 1, 0, 1, 1, 1, |1, 1, 1, 1, 1, 1, 0, 0, 1, 1, |0, 1, 1, 1, 0, 1, 1, 1, 1, 1, |1, 1, 1, 1, 1, 1, 1, 1, 1, 0, |0, 1, 1, 1, 0, 1, 1, 1, 0, 1, |1, 1, 1, 0, 0, 1, 1, 1, 1, 1|];
StudentsProgramm = [2, 2, 2, 1, 2, 1, 1, 1, 2, 1, 2, 2, 1, 1, 2, 2, 1, 2, 2, 2];
StudentsDegree = [1, 1, 1, 1, 1, 1, 1, 1, 1, 1, 1, 1, 1, 1, 1, 1, 1, 1, 1, 1];
StudentsSupervisorId = [6, 9, 3, 1, 3, 15, 6, 15, 8, 6, 14, 6, 5, 11, 4, 7, 11, 14, 3, 14];
StudentsCourseIds = [{1, 3}, {3, 4}, {2, 4}, {3, 4}, {1, 2}, {2, 4}, {2, 3}, {1, 2}, {2, 3}, {1, 2}, {1, 2}, {2, 4}, {2, 4}, {1, 3}, {1, 3}, {2, 4}, {2, 4}, {1, 2}, {1, 4}, {1, 3}];
StudentsAvailability = [|1, 1, 1, 1, 1, 1, 1, 1, 1, 1, |0, 0, 1, 0, 1, 0, 1, 0, 1, 1, |1, 1, 1, 1, 0, 0, 0, 0, 0, 1, |1, 1, 1, 1, 1, 1, 1, 1, 1, 0, |1, 1, 1, 1, 1, 1, 1, 1, 1, 0, |0, 0, 0, 0, 0, 0, 1, 1, 1, 1, |0, 1, 1, 1, 1, 1, 0, 0, 0, 0, |1, 0, 0, 0, 0, 0, 1, 1, 1, 1, |0, 1, 1, 1, 1, 1, 1, 1, 1, 1, |0, 1, 1, 0, 0, 1, 1, 1, 1, 1, |0, 0, 1, 1, 1, 1, 1, 1, 1, 1, |0, 1, 1, 1, 1, 1, 1, 0, 0, 0, |1, 1, 0, 0, 0, 1, 1, 1, 1, 1, |1, 1, 1, 1, 0, 1, 1, 1, 0, 1, |0, 0, 1, 0, 0, 0, 0, 1, 1, 1, |0, 0, 1, 0, 0, 1, 1, 1, 0, 1, |1, 1, 0, 1, 1, 1, 1, 1, 1, 1, |1, 1, 1, 1, 1, 1, 1, 1, 1, 1, |1, 1, 1, 1, 1, 1, 1, 1, 1, 1, |1, 1, 1, 1, 1, 1, 1, 1, 0, 0|];
TheoryticalMinCard = [0, 0, 0, 0, 0, 0, 0, 0, 0, 1, 1, 0, 0, 0, 0, 0, 0, 1, 0, 1];
CoursesInstructorIds = [{2, 7, 8}, {1, 2, 4, 8, 10, 11}, {6, 7, 9, 12}, {1, 2, 3, 5, 6, 7, 8, 11, 13}];
RolesDemands = [4, 0];
RolesContinuity = [];
ExamLen = [1, 1, 1, 1, 1, 1, 1, 1, 1, 1, 1, 1, 1, 1, 1, 1, 1, 1, 1, 1];
LunchTsMinLen = 1;
LunchStarts = [5..6, 15..16];
SupervisorAvailable = 5;
OptimalLunchLenght = [2, 1];
OptimalStartTs = [1, 2];
OptimalFinishTs = [1, 9];
MinimizeRooms = 500;
RolesSoftContinuity = [|1, 2|0, 1|];
SameDegreeInRoom = 20;
Mergeability = 2;
